50
1096
31 39 14 93 51 62 20 12 9 3 52 71 38 98 8 29 67 69 47 36 100 23 14 34 28 4 83 34 35 25 22 40 38 81 94 48 12 78 44 86 50 65 32 23 32 61 36 12 71 39
1 38 74 91 40 98 66 25 53 55 77 37 56 58 21 30 40 34 6 11 6 60 81 36 67 69 83 61 90 44 19 87 26 9 53 26 82 81 57 36 24 46 56 96 76 42 82 72 26 42
